\ SCIP STATISTICS
\   Problem name     : neos859080
\   Variables        : 160 (80 binary, 80 integer, 0 implicit integer, 0 continuous)
\   Constraints      : 164
Minimize
 Obj: +1 x79 +1 x78 +1 x77 +1 x76 +1 x75 +1 x74 +1 x73 +1 x72 +1 x71 +1 x70 +1 x69 +1 x68 +1 x67 +1 x66
      +1 x65 +1 x64 +1 x63 +1 x62 +1 x61 +1 x60 +1 x59 +1 x58 +1 x57 +1 x56 +1 x55 +1 x54 +1 x53 +1 x52
      +1 x51 +1 x50 +1 x49 +1 x48 +1 x47 +1 x46 +1 x45 +1 x44 +1 x43 +1 x42 +1 x41 +1 x40 +1 x39 +1 x38
      +1 x37 +1 x36 +1 x35 +1 x34 +1 x33 +1 x32 +1 x31 +1 x30 +1 x29 +1 x28 +1 x27 +1 x26 +1 x25 +1 x24
      +1 x23 +1 x22 +1 x21 +1 x20 +1 x19 +1 x18 +1 x17 +1 x16 +1 x15 +1 x14 +1 x13 +1 x12 +1 x11 +1 x10
      +1 x9 +1 x8 +1 x7 +1 x6 +1 x5 +1 x4 +1 x3 +1 x2 +1 x1 +1 x80
Subject to
 c1: -1 x1 -1 x2 -1 x3 -1 x4 -1 x5 -1 x6 -1 x7 -1 x8 -1 x9 -1 x10 -1 x11 -1 x12 -1 x13 -1 x14 -1 x15 -1 x16
  -1 x17 -1 x18 -1 x19 -1 x20 -1 x21 -1 x22 -1 x23 -1 x24 -1 x25 -1 x26 -1 x27 -1 x28 -1 x29 -1 x30 -1 x31
  -1 x32 -1 x33 -1 x34 -1 x35 -1 x36 -1 x37 -1 x38 -1 x39 -1 x40 -1 x41 -1 x42 -1 x43 -1 x44 -1 x45 -1 x46
  -1 x47 -1 x48 -1 x49 -1 x50 -1 x51 -1 x52 -1 x53 -1 x54 -1 x55 -1 x56 -1 x57 -1 x58 -1 x59 -1 x60 -1 x61
  -1 x62 -1 x63 -1 x64 -1 x65 -1 x66 -1 x67 -1 x68 -1 x69 -1 x70 -1 x71 -1 x72 -1 x73 -1 x74 -1 x75 -1 x76
  -1 x77 -1 x78 -1 x79 -1 x80 <= -1
 c2: +1 x81 +1 x121 <= +1
 c3: +1 x82 +1 x122 <= +1
 c4: +1 x83 +1 x123 <= +1
 c5: +1 x84 +1 x124 <= +1
 c6: +1 x85 +1 x125 <= +1
 c7: +1 x86 +1 x126 <= +1
 c8: +1 x87 +1 x127 <= +1
 c9: +1 x88 +1 x128 <= +1
 c10: +1 x89 +1 x129 <= +1
 c11: +1 x90 +1 x130 <= +1
 c12: +1 x91 +1 x131 <= +1
 c13: +1 x92 +1 x132 <= +1
 c14: +1 x93 +1 x133 <= +1
 c15: +1 x94 +1 x134 <= +1
 c16: +1 x95 +1 x135 <= +1
 c17: +1 x96 +1 x136 <= +1
 c18: +1 x97 +1 x137 <= +1
 c19: +1 x98 +1 x138 <= +1
 c20: +1 x99 +1 x139 <= +1
 c21: +1 x100 +1 x140 <= +1
 c22: +1 x101 +1 x141 <= +1
 c23: +1 x102 +1 x142 <= +1
 c24: +1 x103 +1 x143 <= +1
 c25: +1 x104 +1 x144 <= +1
 c26: +1 x105 +1 x145 <= +1
 c27: +1 x106 +1 x146 <= +1
 c28: +1 x107 +1 x147 <= +1
 c29: +1 x108 +1 x148 <= +1
 c30: +1 x109 +1 x149 <= +1
 c31: +1 x110 +1 x150 <= +1
 c32: +1 x111 +1 x151 <= +1
 c33: +1 x112 +1 x152 <= +1
 c34: +1 x113 +1 x153 <= +1
 c35: +1 x114 +1 x154 <= +1
 c36: +1 x115 +1 x155 <= +1
 c37: +1 x116 +1 x156 <= +1
 c38: +1 x117 +1 x157 <= +1
 c39: +1 x118 +1 x158 <= +1
 c40: +1 x119 +1 x159 <= +1
 c41: +1 x120 +1 x160 <= +1
 c42: +1 x1 -10 x81 <= +0
 c43: +1 x2 -10 x82 <= +0
 c44: +1 x3 -10 x83 <= +0
 c45: +1 x4 -10 x84 <= +0
 c46: +1 x5 -10 x85 <= +0
 c47: +1 x6 -10 x86 <= +0
 c48: +1 x7 -10 x87 <= +0
 c49: +1 x8 -10 x88 <= +0
 c50: +1 x9 -10 x89 <= +0
 c51: +1 x10 -10 x90 <= +0
 c52: +1 x11 -10 x91 <= +0
 c53: +1 x12 -10 x92 <= +0
 c54: +1 x13 -10 x93 <= +0
 c55: +1 x14 -10 x94 <= +0
 c56: +1 x15 -10 x95 <= +0
 c57: +1 x16 -10 x96 <= +0
 c58: +1 x17 -10 x97 <= +0
 c59: +1 x18 -10 x98 <= +0
 c60: +1 x19 -10 x99 <= +0
 c61: +1 x20 -10 x100 <= +0
 c62: +1 x21 -10 x101 <= +0
 c63: +1 x22 -10 x102 <= +0
 c64: +1 x23 -10 x103 <= +0
 c65: +1 x24 -10 x104 <= +0
 c66: +1 x25 -10 x105 <= +0
 c67: +1 x26 -10 x106 <= +0
 c68: +1 x27 -10 x107 <= +0
 c69: +1 x28 -10 x108 <= +0
 c70: +1 x29 -10 x109 <= +0
 c71: +1 x30 -10 x110 <= +0
 c72: +1 x31 -10 x111 <= +0
 c73: +1 x32 -10 x112 <= +0
 c74: +1 x33 -10 x113 <= +0
 c75: +1 x34 -10 x114 <= +0
 c76: +1 x35 -10 x115 <= +0
 c77: +1 x36 -10 x116 <= +0
 c78: +1 x37 -10 x117 <= +0
 c79: +1 x38 -10 x118 <= +0
 c80: +1 x39 -10 x119 <= +0
 c81: +1 x40 -10 x120 <= +0
 c82: +1 x41 -10 x121 <= +0
 c83: +1 x42 -10 x122 <= +0
 c84: +1 x43 -10 x123 <= +0
 c85: +1 x44 -10 x124 <= +0
 c86: +1 x45 -10 x125 <= +0
 c87: +1 x46 -10 x126 <= +0
 c88: +1 x47 -10 x127 <= +0
 c89: +1 x48 -10 x128 <= +0
 c90: +1 x49 -10 x129 <= +0
 c91: +1 x50 -10 x130 <= +0
 c92: +1 x51 -10 x131 <= +0
 c93: +1 x52 -10 x132 <= +0
 c94: +1 x53 -10 x133 <= +0
 c95: +1 x54 -10 x134 <= +0
 c96: +1 x55 -10 x135 <= +0
 c97: +1 x56 -10 x136 <= +0
 c98: +1 x57 -10 x137 <= +0
 c99: +1 x58 -10 x138 <= +0
 c100: +1 x59 -10 x139 <= +0
 c101: +1 x60 -10 x140 <= +0
 c102: +1 x61 -10 x141 <= +0
 c103: +1 x62 -10 x142 <= +0
 c104: +1 x63 -10 x143 <= +0
 c105: +1 x64 -10 x144 <= +0
 c106: +1 x65 -10 x145 <= +0
 c107: +1 x66 -10 x146 <= +0
 c108: +1 x67 -10 x147 <= +0
 c109: +1 x68 -10 x148 <= +0
 c110: +1 x69 -10 x149 <= +0
 c111: +1 x70 -10 x150 <= +0
 c112: +1 x71 -10 x151 <= +0
 c113: +1 x72 -10 x152 <= +0
 c114: +1 x73 -10 x153 <= +0
 c115: +1 x74 -10 x154 <= +0
 c116: +1 x75 -10 x155 <= +0
 c117: +1 x76 -10 x156 <= +0
 c118: +1 x77 -10 x157 <= +0
 c119: +1 x78 -10 x158 <= +0
 c120: +1 x79 -10 x159 <= +0
 c121: +1 x80 -10 x160 <= +0
 c122: +1 x1 +1 x3 +1 x5 +1 x7 +1 x9 +1 x11 +1 x13 +1 x15 +1 x17 +1 x19 +1 x21 +1 x23 +1 x25 +1 x27 +1 x29
  +1 x31 +1 x33 +1 x35 +1 x37 +1 x39 -1 x41 -1 x43 -1 x45 -1 x47 -1 x49 -1 x51 -1 x53 -1 x55 -1 x57 -1 x59
  -1 x61 -1 x63 -1 x65 -1 x67 -1 x69 -1 x71 -1 x73 -1 x75 -1 x77 -1 x79 = +0
 c123: = +0
 c124: = +0
 c125: = +0
 c126: = +0
 c127: +1 x3 +1 x5 +1 x11 +1 x13 +1 x19 +1 x21 +1 x27 +1 x29 +1 x35 +1 x37 -1 x43 -1 x45 -1 x51 -1 x53
  -1 x59 -1 x61 -1 x67 -1 x69 -1 x75 -1 x77 = +0
 c128: +1 x5 +1 x7 +1 x9 +1 x11 +1 x21 +1 x23 +1 x25 +1 x27 +1 x37 +1 x39 -1 x45 -1 x47 -1 x49 -1 x51
  -1 x61 -1 x63 -1 x65 -1 x67 -1 x77 -1 x79 = +0
 c129: +1 x3 +1 x5 +1 x7 +1 x15 +1 x17 +1 x25 +1 x27 +1 x29 +1 x35 +1 x37 +1 x39 -1 x43 -1 x45 -1 x47
  -1 x55 -1 x57 -1 x65 -1 x67 -1 x69 -1 x75 -1 x77 -1 x79 = +0
 c130: +1 x2 +1 x3 +1 x5 +1 x6 +1 x9 +1 x10 +1 x11 +1 x14 +1 x15 +1 x18 +1 x19 +1 x22 +1 x25 +1 x26 +1 x30
  +1 x31 +1 x33 +1 x34 +1 x38 +1 x39 -1 x42 -1 x43 -1 x45 -1 x46 -1 x49 -1 x50 -1 x51 -1 x54 -1 x55 -1 x58
  -1 x59 -1 x62 -1 x65 -1 x66 -1 x70 -1 x71 -1 x73 -1 x74 -1 x78 -1 x79 = +0
 c131: +1 x7 +1 x9 +1 x11 +1 x15 +1 x19 +1 x23 +1 x25 +1 x29 +1 x31 +1 x37 -1 x47 -1 x49 -1 x51 -1 x55
  -1 x59 -1 x63 -1 x65 -1 x69 -1 x71 -1 x77 = +0
 c132: +1 x5 +1 x7 +1 x9 +1 x17 +1 x23 +1 x25 +1 x29 +1 x31 +1 x35 +1 x39 -1 x45 -1 x47 -1 x49 -1 x57
  -1 x63 -1 x65 -1 x69 -1 x71 -1 x75 -1 x79 = +0
 c133: +1 x3 +1 x11 +1 x15 +1 x17 +1 x19 +1 x21 +1 x23 +1 x25 +1 x27 +1 x29 +1 x31 +1 x39 -1 x43 -1 x51
  -1 x55 -1 x57 -1 x59 -1 x61 -1 x63 -1 x65 -1 x67 -1 x69 -1 x71 -1 x79 = +0
 c134: +1 x3 +1 x5 +1 x7 +1 x9 +1 x11 +1 x13 +1 x15 +1 x17 +1 x19 +1 x27 +1 x29 +1 x33 +1 x35 +1 x37 +1 x39
  -1 x43 -1 x45 -1 x47 -1 x49 -1 x51 -1 x53 -1 x55 -1 x57 -1 x59 -1 x67 -1 x69 -1 x73 -1 x75 -1 x77 -1 x79
  = +0
 c135: +1 x5 +1 x6 +1 x7 +1 x10 +1 x22 +1 x25 +1 x26 +1 x27 +1 x29 +1 x31 +1 x33 +1 x38 -1 x45 -1 x46
  -1 x47 -1 x50 -1 x62 -1 x65 -1 x66 -1 x67 -1 x69 -1 x71 -1 x73 -1 x78 = +0
 c136: +1 x5 +1 x7 +1 x9 +1 x10 +1 x11 +1 x14 +1 x18 +1 x22 +1 x23 +1 x25 +1 x29 +1 x31 +1 x33 +1 x39
  -1 x45 -1 x47 -1 x49 -1 x50 -1 x51 -1 x54 -1 x58 -1 x62 -1 x63 -1 x65 -1 x69 -1 x71 -1 x73 -1 x79 = +0
 c137: +1 x5 +1 x6 +1 x7 +1 x9 +1 x10 +1 x11 +1 x14 +1 x15 +1 x17 +1 x19 +1 x23 +1 x27 +1 x30 +1 x34 +1 x35
  -1 x45 -1 x46 -1 x47 -1 x49 -1 x50 -1 x51 -1 x54 -1 x55 -1 x57 -1 x59 -1 x63 -1 x67 -1 x70 -1 x74 -1 x75
  = +0
 c138: +1 x4 +1 x5 +1 x6 +1 x7 +1 x10 +1 x12 +1 x13 +1 x17 +1 x18 +1 x20 +1 x21 +1 x22 +1 x28 +1 x30 +1 x35
  +1 x36 +1 x37 +1 x38 -1 x44 -1 x45 -1 x46 -1 x47 -1 x50 -1 x52 -1 x53 -1 x57 -1 x58 -1 x60 -1 x61 -1 x62
  -1 x68 -1 x70 -1 x75 -1 x76 -1 x77 -1 x78 = +0
 c139: +1 x7 +1 x11 +1 x13 +1 x14 +1 x15 +1 x18 +1 x21 +1 x22 +1 x23 +1 x25 +1 x29 +1 x30 +1 x35 +1 x37
  +1 x38 -1 x47 -1 x51 -1 x53 -1 x54 -1 x55 -1 x58 -1 x61 -1 x62 -1 x63 -1 x65 -1 x69 -1 x70 -1 x75 -1 x77
  -1 x78 = +0
 c140: +1 x5 +1 x7 +1 x10 +1 x11 +1 x13 +1 x14 +1 x18 +1 x19 +1 x27 +1 x31 +1 x33 +1 x34 +1 x37 +1 x39
  -1 x45 -1 x47 -1 x50 -1 x51 -1 x53 -1 x54 -1 x58 -1 x59 -1 x67 -1 x71 -1 x73 -1 x74 -1 x77 -1 x79 = +0
 c141: +1 x6 +1 x13 +1 x17 +1 x19 +1 x21 +1 x22 +1 x27 +1 x30 +1 x33 +1 x34 +1 x35 +1 x38 +1 x39 -1 x46
  -1 x53 -1 x57 -1 x59 -1 x61 -1 x62 -1 x67 -1 x70 -1 x73 -1 x74 -1 x75 -1 x78 -1 x79 = +0
 c142: +1 x6 +1 x7 +1 x9 +1 x10 +1 x13 +1 x14 +1 x18 +1 x22 +1 x23 +1 x25 +1 x26 +1 x27 +1 x30 +1 x33
  +1 x34 +1 x35 +1 x37 +1 x38 +1 x39 -1 x46 -1 x47 -1 x49 -1 x50 -1 x53 -1 x54 -1 x58 -1 x62 -1 x63 -1 x65
  -1 x66 -1 x67 -1 x70 -1 x73 -1 x74 -1 x75 -1 x77 -1 x78 -1 x79 = +0
 c143: +1 x10 +1 x12 +1 x14 +1 x20 +1 x21 +1 x23 +1 x25 +1 x33 +1 x35 -1 x50 -1 x52 -1 x54 -1 x60 -1 x61
  -1 x63 -1 x65 -1 x73 -1 x75 = +0
 c144: +1 x7 +1 x10 +1 x11 +1 x14 +1 x15 +1 x17 +1 x18 +1 x19 +1 x20 +1 x21 +1 x22 +1 x25 +1 x28 +1 x31
  +1 x33 +1 x36 -1 x47 -1 x50 -1 x51 -1 x54 -1 x55 -1 x57 -1 x58 -1 x59 -1 x60 -1 x61 -1 x62 -1 x65 -1 x68
  -1 x71 -1 x73 -1 x76 = +0
 c145: +1 x9 +1 x10 +1 x11 +1 x12 +1 x13 +1 x14 +1 x15 +1 x17 +1 x18 +1 x20 +1 x22 +1 x23 +1 x25 +1 x28
  +1 x30 +1 x34 +1 x38 +1 x39 -1 x49 -1 x50 -1 x51 -1 x52 -1 x53 -1 x54 -1 x55 -1 x57 -1 x58 -1 x60 -1 x62
  -1 x63 -1 x65 -1 x68 -1 x70 -1 x74 -1 x78 -1 x79 = +0
 c146: +1 x8 +1 x10 +1 x12 +1 x14 +1 x17 +1 x20 +1 x23 +1 x24 +1 x26 +1 x29 +1 x34 +1 x36 +1 x40 -1 x48
  -1 x50 -1 x52 -1 x54 -1 x57 -1 x60 -1 x63 -1 x64 -1 x66 -1 x69 -1 x74 -1 x76 -1 x80 = +0
 c147: +1 x9 +1 x14 +1 x17 +1 x21 +1 x22 +1 x23 +1 x25 +1 x26 +1 x27 +1 x28 +1 x30 +1 x35 +1 x36 -1 x49
  -1 x54 -1 x57 -1 x61 -1 x62 -1 x63 -1 x65 -1 x66 -1 x67 -1 x68 -1 x70 -1 x75 -1 x76 = +0
 c148: +1 x10 +1 x11 +1 x14 +1 x17 +1 x19 +1 x20 +1 x21 +1 x22 +1 x25 +1 x26 +1 x28 +1 x31 +1 x33 +1 x35
  +1 x36 +1 x38 +1 x39 -1 x50 -1 x51 -1 x54 -1 x57 -1 x59 -1 x60 -1 x61 -1 x62 -1 x65 -1 x66 -1 x68 -1 x71
  -1 x73 -1 x75 -1 x76 -1 x78 -1 x79 = +0
 c149: +1 x11 +1 x12 +1 x15 +1 x17 +1 x21 +1 x23 +1 x26 +1 x29 +1 x34 +1 x35 +1 x38 +1 x39 -1 x51 -1 x52
  -1 x55 -1 x57 -1 x61 -1 x63 -1 x66 -1 x69 -1 x74 -1 x75 -1 x78 -1 x79 = +0
 c150: +1 x12 +1 x13 +1 x14 +1 x15 +1 x17 +1 x18 +1 x19 +1 x20 +1 x23 +1 x26 +1 x28 +1 x29 +1 x31 +1 x33
  +1 x36 +1 x37 +1 x39 -1 x52 -1 x53 -1 x54 -1 x55 -1 x57 -1 x58 -1 x59 -1 x60 -1 x63 -1 x66 -1 x68 -1 x69
  -1 x71 -1 x73 -1 x76 -1 x77 -1 x79 = +0
 c151: +1 x13 +1 x19 +1 x20 +1 x23 +1 x24 +1 x28 +1 x29 +1 x33 +1 x40 -1 x53 -1 x59 -1 x60 -1 x63 -1 x64
  -1 x68 -1 x69 -1 x73 -1 x80 = +0
 c152: +1 x14 +1 x19 +1 x20 +1 x21 +1 x22 +1 x27 +1 x28 +1 x29 +1 x30 +1 x33 +1 x34 +1 x35 +1 x36 +1 x37
  +1 x38 +1 x40 -1 x54 -1 x59 -1 x60 -1 x61 -1 x62 -1 x67 -1 x68 -1 x69 -1 x70 -1 x73 -1 x74 -1 x75 -1 x76
  -1 x77 -1 x78 -1 x80 = +0
 c153: +1 x15 +1 x17 +1 x18 +1 x19 +1 x20 +1 x21 +1 x22 +1 x24 +1 x25 +1 x26 +1 x27 +1 x28 +1 x30 +1 x31
  +1 x34 +1 x36 +1 x37 +1 x40 -1 x55 -1 x57 -1 x58 -1 x59 -1 x60 -1 x61 -1 x62 -1 x64 -1 x65 -1 x66 -1 x67
  -1 x68 -1 x70 -1 x71 -1 x74 -1 x76 -1 x77 -1 x80 = +0
 c154: +1 x16 +1 x17 +1 x19 +1 x20 +1 x24 +1 x25 +1 x27 +1 x28 +1 x33 +1 x34 +1 x37 +1 x40 -1 x56 -1 x57
  -1 x59 -1 x60 -1 x64 -1 x65 -1 x67 -1 x68 -1 x73 -1 x74 -1 x77 -1 x80 = +0
 c155: +1 x18 +1 x19 +1 x23 +1 x25 +1 x28 +1 x31 +1 x33 +1 x34 +1 x39 -1 x58 -1 x59 -1 x63 -1 x65 -1 x68
  -1 x71 -1 x73 -1 x74 -1 x79 = +0
 c156: +1 x20 +1 x22 +1 x28 +1 x29 +1 x31 +1 x33 +1 x34 +1 x35 +1 x38 +1 x39 +1 x40 -1 x60 -1 x62 -1 x68
  -1 x69 -1 x71 -1 x73 -1 x74 -1 x75 -1 x78 -1 x79 -1 x80 = +0
 c157: +1 x21 +1 x22 +1 x24 +1 x30 +1 x34 +1 x35 +1 x39 -1 x61 -1 x62 -1 x64 -1 x70 -1 x74 -1 x75 -1 x79
  = +0
 c158: +1 x23 +1 x24 +1 x26 +1 x28 +1 x29 +1 x30 +1 x34 +1 x36 +1 x37 +1 x38 +1 x39 +1 x40 -1 x63 -1 x64
  -1 x66 -1 x68 -1 x69 -1 x70 -1 x74 -1 x76 -1 x77 -1 x78 -1 x79 -1 x80 = +0
 c159: +1 x25 +1 x26 +1 x29 +1 x37 +1 x38 +1 x40 -1 x65 -1 x66 -1 x69 -1 x77 -1 x78 -1 x80 = +0
 c160: +1 x27 +1 x28 +1 x29 +1 x31 +1 x33 +1 x38 +1 x39 +1 x40 -1 x67 -1 x68 -1 x69 -1 x71 -1 x73 -1 x78
  -1 x79 -1 x80 = +0
 c161: +1 x30 +1 x31 +1 x34 +1 x36 +1 x38 +1 x39 +1 x40 -1 x70 -1 x71 -1 x74 -1 x76 -1 x78 -1 x79 -1 x80
  = +0
 c162: +1 x32 +1 x33 +1 x34 +1 x37 +1 x38 +1 x40 -1 x72 -1 x73 -1 x74 -1 x77 -1 x78 -1 x80 = +0
 c163: +1 x35 +1 x36 +1 x37 +1 x38 -1 x75 -1 x76 -1 x77 -1 x78 = +0
 c164: +1 x39 +1 x40 -1 x79 -1 x80 = +0
Bounds
 0 <= x159 <= 1
 0 <= x158 <= 1
 0 <= x157 <= 1
 0 <= x156 <= 1
 0 <= x155 <= 1
 0 <= x154 <= 1
 0 <= x153 <= 1
 0 <= x152 <= 1
 0 <= x151 <= 1
 0 <= x150 <= 1
 0 <= x149 <= 1
 0 <= x148 <= 1
 0 <= x147 <= 1
 0 <= x146 <= 1
 0 <= x145 <= 1
 0 <= x144 <= 1
 0 <= x143 <= 1
 0 <= x142 <= 1
 0 <= x141 <= 1
 0 <= x140 <= 1
 0 <= x139 <= 1
 0 <= x138 <= 1
 0 <= x137 <= 1
 0 <= x136 <= 1
 0 <= x135 <= 1
 0 <= x134 <= 1
 0 <= x133 <= 1
 0 <= x132 <= 1
 0 <= x131 <= 1
 0 <= x130 <= 1
 0 <= x129 <= 1
 0 <= x128 <= 1
 0 <= x127 <= 1
 0 <= x126 <= 1
 0 <= x125 <= 1
 0 <= x124 <= 1
 0 <= x123 <= 1
 0 <= x122 <= 1
 0 <= x121 <= 1
 0 <= x120 <= 1
 0 <= x119 <= 1
 0 <= x118 <= 1
 0 <= x117 <= 1
 0 <= x116 <= 1
 0 <= x115 <= 1
 0 <= x114 <= 1
 0 <= x113 <= 1
 0 <= x112 <= 1
 0 <= x111 <= 1
 0 <= x110 <= 1
 0 <= x109 <= 1
 0 <= x108 <= 1
 0 <= x107 <= 1
 0 <= x106 <= 1
 0 <= x105 <= 1
 0 <= x104 <= 1
 0 <= x103 <= 1
 0 <= x102 <= 1
 0 <= x101 <= 1
 0 <= x100 <= 1
 0 <= x99 <= 1
 0 <= x98 <= 1
 0 <= x97 <= 1
 0 <= x96 <= 1
 0 <= x95 <= 1
 0 <= x94 <= 1
 0 <= x93 <= 1
 0 <= x92 <= 1
 0 <= x91 <= 1
 0 <= x90 <= 1
 0 <= x89 <= 1
 0 <= x88 <= 1
 0 <= x87 <= 1
 0 <= x86 <= 1
 0 <= x85 <= 1
 0 <= x84 <= 1
 0 <= x83 <= 1
 0 <= x82 <= 1
 0 <= x81 <= 1
 0 <= x160 <= 1
 0 <= x79 <= 10
 0 <= x78 <= 10
 0 <= x77 <= 10
 0 <= x76 <= 10
 0 <= x75 <= 10
 0 <= x74 <= 10
 0 <= x73 <= 10
 0 <= x72 <= 10
 0 <= x71 <= 10
 0 <= x70 <= 10
 0 <= x69 <= 10
 0 <= x68 <= 10
 0 <= x67 <= 10
 0 <= x66 <= 10
 0 <= x65 <= 10
 0 <= x64 <= 10
 0 <= x63 <= 10
 0 <= x62 <= 10
 0 <= x61 <= 10
 0 <= x60 <= 10
 0 <= x59 <= 10
 0 <= x58 <= 10
 0 <= x57 <= 10
 0 <= x56 <= 10
 0 <= x55 <= 10
 0 <= x54 <= 10
 0 <= x53 <= 10
 0 <= x52 <= 10
 0 <= x51 <= 10
 0 <= x50 <= 10
 0 <= x49 <= 10
 0 <= x48 <= 10
 0 <= x47 <= 10
 0 <= x46 <= 10
 0 <= x45 <= 10
 0 <= x44 <= 10
 0 <= x43 <= 10
 0 <= x42 <= 10
 0 <= x41 <= 10
 0 <= x40 <= 10
 0 <= x39 <= 10
 0 <= x38 <= 10
 0 <= x37 <= 10
 0 <= x36 <= 10
 0 <= x35 <= 10
 0 <= x34 <= 10
 0 <= x33 <= 10
 0 <= x32 <= 10
 0 <= x31 <= 10
 0 <= x30 <= 10
 0 <= x29 <= 10
 0 <= x28 <= 10
 0 <= x27 <= 10
 0 <= x26 <= 10
 0 <= x25 <= 10
 0 <= x24 <= 10
 0 <= x23 <= 10
 0 <= x22 <= 10
 0 <= x21 <= 10
 0 <= x20 <= 10
 0 <= x19 <= 10
 0 <= x18 <= 10
 0 <= x17 <= 10
 0 <= x16 <= 10
 0 <= x15 <= 10
 0 <= x14 <= 10
 0 <= x13 <= 10
 0 <= x12 <= 10
 0 <= x11 <= 10
 0 <= x10 <= 10
 0 <= x9 <= 10
 0 <= x8 <= 10
 0 <= x7 <= 10
 0 <= x6 <= 10
 0 <= x5 <= 10
 0 <= x4 <= 10
 0 <= x3 <= 10
 0 <= x2 <= 10
 0 <= x1 <= 10
 0 <= x80 <= 10
Binaries
 x159 x158 x157 x156 x155 x154 x153 x152 x151 x150 x149 x148 x147 x146 x145 x144 x143 x142 x141 x140 x139
 x138 x137 x136 x135 x134 x133 x132 x131 x130 x129 x128 x127 x126 x125 x124 x123 x122 x121 x120 x119 x118
 x117 x116 x115 x114 x113 x112 x111 x110 x109 x108 x107 x106 x105 x104 x103 x102 x101 x100 x99 x98 x97
 x96 x95 x94 x93 x92 x91 x90 x89 x88 x87 x86 x85 x84 x83 x82 x81 x160
Generals
 x79 x78 x77 x76 x75 x74 x73 x72 x71 x70 x69 x68 x67 x66 x65 x64 x63 x62 x61 x60 x59 x58 x57 x56 x55 x54
 x53 x52 x51 x50 x49 x48 x47 x46 x45 x44 x43 x42 x41 x40 x39 x38 x37 x36 x35 x34 x33 x32 x31 x30 x29 x28
 x27 x26 x25 x24 x23 x22 x21 x20 x19 x18 x17 x16 x15 x14 x13 x12 x11 x10 x9 x8 x7 x6 x5 x4 x3 x2 x1 x80
End
